%NProcShared=6
%mem=5GB
%chk=Gauss/antidiabetic/DB00197.chk
# PM6 Opt

Title Card

0  1
C           0.98223        -0.10929        -0.05216
C           2.49053        -0.05374        -0.05866
C           3.23973         1.14222        -0.09649
C           2.61196         2.51368        -0.13969
C           4.65360         1.06511        -0.08623
C           5.32400        -0.17637        -0.09098
C           6.82873        -0.22211        -0.14121
C           7.42845         1.13134        -0.45226
C           6.71239         2.22714         0.34041
C           6.79315         2.04012         1.86932
C           7.37059         3.58846        -0.01135
O           8.74933         3.54043         0.37566
C           9.52152         4.64595         0.18292
C           9.10811         5.84375        -0.38614
C          10.01131         6.90617        -0.52857
C          11.34258         6.77616        -0.10904
C          12.32383         7.91072        -0.29938
C          12.43574         8.93037         0.83720
S          12.92380         8.24489         2.45544
C          11.57914         8.98854         3.28112
O          11.34825         8.84784         4.46952
N          10.83915         9.72349         2.41897
C          11.14909         9.68430         1.09316
O          10.47240        10.23025         0.23082
C          11.75237         5.56606         0.46072
C          10.84683         4.51178         0.60644
O           5.32817         2.27389        -0.06637
C           4.57945        -1.37305        -0.01108
C           5.25753        -2.71691         0.08102
C           3.17717        -1.28554        -0.00803
O           2.39730        -2.41705         0.04743
H           0.49053         0.86018        -0.10635
H           0.63279        -0.59069         0.86837
H           0.62836        -0.68829        -0.91288
H           1.52274         2.50993        -0.14957
H           2.93022         3.03922        -1.04658
H           2.91616         3.09322         0.73835
H           7.16108        -0.92157        -0.91684
H           7.20759        -0.57638         0.82482
H           7.30143         1.32711        -1.52684
H           8.50571         1.10651        -0.25496
H           7.82807         1.93793         2.21136
H           6.23491         1.16597         2.21819
H           6.34337         2.89929         2.38100
H           6.85183         4.39736         0.51835
H           7.28266         3.77403        -1.08986
H           8.09204         5.98704        -0.73912
H           9.66445         7.82977        -0.98710
H          12.05215         8.43775        -1.22464
H          13.31604         7.48459        -0.50142
H          13.19067         9.67897         0.56877
H          10.00214        10.18218         2.74079
H          12.77931         5.42467         0.79098
H          11.17952         3.57688         1.04778
H           6.34457        -2.65811         0.16764
H           5.03304        -3.31189        -0.80987
H           4.91168        -3.24766         0.97466
H           2.95192        -3.20933         0.00909

