%NProcShared=6
%mem=5GB
%chk=Gauss/antidiabetic/DB00222.chk
# PM6 Opt

Title Card

0  1
C           8.88007         4.62434         1.02632
C           9.29952         3.19240         1.31455
C          10.13543         3.08855         2.54042
C          11.46865         3.15809         2.68757
C          12.48927         3.45166         1.64694
C          11.89664         2.90974         4.09391
N          10.64476         2.74231         4.77432
C          10.64481         2.50017         6.13647
O          11.69035         2.40264         6.77834
N           9.41197         2.37589         6.72230
C           9.26842         2.02322         8.12319
C           9.20985         3.24289         9.05566
C           9.12493         2.92363        10.53963
C           9.72808         1.78248        11.09518
C           9.68421         1.53333        12.47042
C           9.06243         2.44826        13.31659
C           8.44772         3.58920        12.78742
C           8.48864         3.82585        11.40913
S           8.97509         2.12810        15.06308
O           7.88486         2.93373        15.58801
O           8.99998         0.70252        15.28887
N          10.35657         2.84299        15.65655
C          11.63070         2.30822        15.54528
O          11.88137         1.29932        14.90781
N          12.57610         3.04235        16.20917
C          13.99137         2.68110        16.18484
C          14.70590         3.32811        14.99180
C          16.19666         2.98510        14.97170
C          16.89292         3.35205        16.28980
C          18.35894         2.91684        16.26621
C          16.16278         2.73069        17.48795
C          14.67577         3.08627        17.49537
C           9.57285         2.82355         3.88680
O           8.38420         2.71401         4.13468
H           8.27373         4.66270         0.11564
H           9.75178         5.27015         0.87570
H           8.28588         5.03781         1.84826
H           9.85413         2.80240         0.45169
H           8.41190         2.55737         1.40944
H          12.03872         3.72014         0.68707
H          13.13728         2.58378         1.48737
H          13.11446         4.29635         1.95896
H          12.44272         3.75447         4.52551
H          12.49337         1.99550         4.18543
H           8.59350         2.40206         6.11755
H          10.11648         1.38240         8.38343
H           8.35867         1.42166         8.22165
H           8.33719         3.84708         8.76859
H          10.09104         3.87730         8.89756
H          10.25285         1.06215        10.47279
H          10.14612         0.63168        12.86846
H           7.93403         4.29213        13.43877
H           8.01396         4.72500        11.01929
H          10.16299         3.63868        16.24574
H          12.31934         3.95152        16.56001
H          14.05770         1.58999        16.08063
H          14.58576         4.41858        15.03558
H          14.24500         3.00291        14.05158
H          16.67731         3.51428        14.14000
H          16.31580         1.91198        14.77469
H          16.86898         4.44438        16.40043
H          18.45162         1.83097        16.15467
H          18.86634         3.20483        17.19323
H          18.89198         3.38809        15.43353
H          16.62170         3.07615        18.42223
H          16.27295         1.63881        17.46651
H          14.56170         4.16596        17.65847
H          14.18680         2.59070        18.34278

